TIP.Original.Linear/tip2015_weird_nat_add3_assoc1.smt2
(set-logic HORN)
(declare-datatypes ((Nat_238 0)) (((zero_31 ) (succ_31 (p_91 Nat_238)))))
(declare-fun diseqNat_238 (Nat_238 Nat_238) Bool)
(declare-fun p_92 (Nat_238 Nat_238) Bool)
(declare-fun iszero_31 (Nat_238) Bool)
(declare-fun issucc_31 (Nat_238) Bool)
(assert (forall ((x_18779 Nat_238))
	(p_92 x_18779 (succ_31 x_18779))))
(assert (iszero_31 zero_31))
(assert (forall ((x_18781 Nat_238))
	(issucc_31 (succ_31 x_18781))))
(assert (forall ((x_18782 Nat_238))
	(diseqNat_238 zero_31 (succ_31 x_18782))))
(assert (forall ((x_18783 Nat_238))
	(diseqNat_238 (succ_31 x_18783) zero_31)))
(assert (forall ((x_18784 Nat_238) (x_18785 Nat_238))
	(=> (diseqNat_238 x_18784 x_18785)
	    (diseqNat_238 (succ_31 x_18784) (succ_31 x_18785)))))
(declare-fun plus_30 (Nat_238 Nat_238 Nat_238) Bool)
(assert (forall ((x_18756 Nat_238) (z_749 Nat_238) (y_735 Nat_238))
	(=> (plus_30 x_18756 z_749 y_735)
	    (plus_30 (succ_31 x_18756) (succ_31 z_749) y_735))))
(assert (forall ((x_18757 Nat_238))
	(plus_30 x_18757 zero_31 x_18757)))
(declare-fun add_139 (Nat_238 Nat_238 Nat_238 Nat_238) Bool)
(assert (forall ((x_18758 Nat_238) (x_18759 Nat_238) (x_18744 Nat_238) (y_736 Nat_238) (z_750 Nat_238))
	(=>	(and (add_139 x_18759 x_18744 y_736 z_750)
			(plus_30 x_18758 (succ_31 zero_31) x_18759))
		(add_139 x_18758 (succ_31 x_18744) y_736 z_750))))
(assert (forall ((x_18761 Nat_238) (x_18762 Nat_238) (x_18745 Nat_238) (z_750 Nat_238))
	(=>	(and (add_139 x_18762 zero_31 x_18745 z_750)
			(plus_30 x_18761 (succ_31 zero_31) x_18762))
		(add_139 x_18761 zero_31 (succ_31 x_18745) z_750))))
(assert (forall ((x_18764 Nat_238))
	(add_139 x_18764 zero_31 zero_31 x_18764)))
(assert (forall ((x_18765 Nat_238) (x_18766 Nat_238) (x_18767 Nat_238) (x_18768 Nat_238) (x_18746 Nat_238) (x_18747 Nat_238) (x_18748 Nat_238) (x_18749 Nat_238) (x_18750 Nat_238))
	(=>	(and true
			(diseqNat_238 x_18766 x_18768)
			(add_139 x_18765 x_18746 x_18747 x_18748)
			(add_139 x_18766 x_18765 x_18749 x_18750)
			(add_139 x_18767 x_18748 x_18749 x_18750)
			(add_139 x_18768 x_18746 x_18747 x_18767))
		false)))
(assert (forall ((x_18769 Nat_238) (x_18770 Nat_238) (x_18771 Nat_238) (x_18772 Nat_238) (x_18751 Nat_238) (y_737 Nat_238) (z_751 Nat_238))
	(=>	(and true
			(diseqNat_238 x_18770 x_18772)
			(plus_30 x_18769 y_737 z_751)
			(plus_30 x_18770 x_18751 x_18769)
			(plus_30 x_18771 x_18751 y_737)
			(plus_30 x_18772 x_18771 z_751))
		false)))
(assert (forall ((x_18773 Nat_238) (x_18774 Nat_238) (x_18752 Nat_238) (y_738 Nat_238))
	(=>	(and true
			(diseqNat_238 x_18773 x_18774)
			(plus_30 x_18773 x_18752 y_738)
			(plus_30 x_18774 y_738 x_18752))
		false)))
(assert (forall ((x_18775 Nat_238) (x_18753 Nat_238))
	(=>	(and true
			(diseqNat_238 x_18775 x_18753)
			(plus_30 x_18775 x_18753 zero_31))
		false)))
(assert (forall ((x_18776 Nat_238) (x_18754 Nat_238))
	(=>	(and true
			(diseqNat_238 x_18776 x_18754)
			(plus_30 x_18776 zero_31 x_18754))
		false)))
(check-sat)
